0 4557
2401 4423
4802 4326
7203 4232
9604 4159
12005 4091
14406 4037
16807 3995
19208 3958
21609 3918
24010 3876
26411 3843
28812 3829
31213 3822
33614 3771
36015 3750
38416 3734
40817 3717
43218 3688
45619 3659
48020 3624
50421 3606
52822 3569
55223 3546
57624 3538
60025 3534
62426 3532
64827 3529
67228 3521
69629 3518
72030 3510
74431 3505
76832 3502
79233 3498
81634 3490
84035 3488
86436 3481
88837 3480
91238 3479
223293 3476
403368 3464
405769 3453
408170 3448
410571 3445
